Route #1: 15 8 17 42 21
Route #2: 1 32 28 29 19
Route #3: 5 39
Route #4: 10 35 45 41 23 46
Route #5: 3 13 38 22 14 31 6
Route #6: 33 43 24 16 11 36 20 30 44
Route #7: 25 4 18 26 47 49 9
Route #8: 34 48 40 7 37 27 12 2
Cost 1338